p edges 400 791
e 1 25
e 1 168
e 2 106
e 2 173
e 2 240
e 2 258
e 2 281
e 2 353
e 3 43
e 3 116
e 3 178
e 3 346
e 3 368
e 4 65
e 4 67
e 4 315
e 4 321
e 4 350
e 5 19
e 5 27
e 5 38
e 5 49
e 5 346
e 6 80
e 6 131
e 6 228
e 6 373
e 7 42
e 7 92
e 7 106
e 7 162
e 7 217
e 7 254
e 8 176
e 8 189
e 9 105
e 9 233
e 9 284
e 10 25
e 10 96
e 10 119
e 11 101
e 11 178
e 11 335
e 11 336
e 11 357
e 12 331
e 12 399
e 13 27
e 13 38
e 13 145
e 13 198
e 13 308
e 14 116
e 14 140
e 14 166
e 14 180
e 14 313
e 14 389
e 16 37
e 16 228
e 16 254
e 16 257
e 16 329
e 16 388
e 17 116
e 17 197
e 17 249
e 17 371
e 18 19
e 18 381
e 19 85
e 19 203
e 20 53
e 20 64
e 20 71
e 20 225
e 20 384
e 21 43
e 21 82
e 21 87
e 21 112
e 21 167
e 21 185
e 21 236
e 21 301
e 22 134
e 22 176
e 22 330
e 23 98
e 23 174
e 23 186
e 23 193
e 24 86
e 24 127
e 24 156
e 24 222
e 24 253
e 25 205
e 25 359
e 26 32
e 26 394
e 26 398
e 28 399
e 29 168
e 29 174
e 29 282
e 29 344
e 29 374
e 29 400
e 30 79
e 30 193
e 30 235
e 30 241
e 30 276
e 31 282
e 31 353
e 31 367
e 32 79
e 32 354
e 33 235
e 33 327
e 33 387
e 34 259
e 34 297
e 34 367
e 35 45
e 35 122
e 35 165
e 35 215
e 35 337
e 35 345
e 35 396
e 36 83
e 36 176
e 36 214
e 36 292
e 37 70
e 37 170
e 37 173
e 37 244
e 37 287
e 37 289
e 37 329
e 38 125
e 38 352
e 40 111
e 40 254
e 40 262
e 40 326
e 41 239
e 41 240
e 41 256
e 42 85
e 42 104
e 42 112
e 43 76
e 43 130
e 43 141
e 43 176
e 43 265
e 44 350
e 45 58
e 45 104
e 45 175
e 45 209
e 45 291
e 45 345
e 46 237
e 46 358
e 47 197
e 47 319
e 48 69
e 48 84
e 48 298
e 50 128
e 50 144
e 50 177
e 50 194
e 51 203
e 51 299
e 51 361
e 51 377
e 52 246
e 52 275
e 52 278
e 52 282
e 52 359
e 52 397
e 53 217
e 54 85
e 54 253
e 54 285
e 54 286
e 54 294
e 54 384
e 55 244
e 55 363
e 56 208
e 57 81
e 57 224
e 58 99
e 59 92
e 59 112
e 59 189
e 59 276
e 59 351
e 60 82
e 61 213
e 63 261
e 63 383
e 64 179
e 64 184
e 64 276
e 66 196
e 66 205
e 66 242
e 66 313
e 66 347
e 66 355
e 68 97
e 68 391
e 70 140
e 70 357
e 70 384
e 71 78
e 71 133
e 71 165
e 72 234
e 72 300
e 72 372
e 73 91
e 73 97
e 73 317
e 73 347
e 74 94
e 74 249
e 74 272
e 74 328
e 74 376
e 74 378
e 76 147
e 76 162
e 76 185
e 76 212
e 76 245
e 76 328
e 77 180
e 77 210
e 77 378
e 78 217
e 78 267
e 78 273
e 78 398
e 79 315
e 80 250
e 80 356
e 81 109
e 81 114
e 81 139
e 81 153
e 81 224
e 81 374
e 82 105
e 82 189
e 83 212
e 84 311
e 84 336
e 85 115
e 85 327
e 85 355
e 85 364
e 86 105
e 86 155
e 86 187
e 86 223
e 86 397
e 87 154
e 87 166
e 87 251
e 87 259
e 88 105
e 88 106
e 88 307
e 88 322
e 89 100
e 89 169
e 89 320
e 90 105
e 90 165
e 90 171
e 90 201
e 90 233
e 90 322
e 90 345
e 90 356
e 91 200
e 91 229
e 91 328
e 92 326
e 92 337
e 92 340
e 92 391
e 93 170
e 93 387
e 93 390
e 94 226
e 94 257
e 94 313
e 94 320
e 94 373
e 95 141
e 95 143
e 95 223
e 95 255
e 95 316
e 95 397
e 96 195
e 96 271
e 96 380
e 97 134
e 97 166
e 97 301
e 97 343
e 97 383
e 99 264
e 99 332
e 99 338
e 100 136
e 100 158
e 100 289
e 100 297
e 100 345
e 101 143
e 101 167
e 102 125
e 102 181
e 102 223
e 102 277
e 102 295
e 102 366
e 103 230
e 103 363
e 103 397
e 104 137
e 104 165
e 104 314
e 105 120
e 105 214
e 105 230
e 105 268
e 105 324
e 106 174
e 106 238
e 106 285
e 106 301
e 107 172
e 107 173
e 107 358
e 108 252
e 108 357
e 108 395
e 109 127
e 109 141
e 109 215
e 109 300
e 109 321
e 109 365
e 109 368
e 110 269
e 110 305
e 111 164
e 111 284
e 111 292
e 111 324
e 111 332
e 112 133
e 112 212
e 112 236
e 112 260
e 112 288
e 112 357
e 112 363
e 113 233
e 114 197
e 114 202
e 114 227
e 114 247
e 115 301
e 115 316
e 115 343
e 116 215
e 116 279
e 117 128
e 117 235
e 117 367
e 118 253
e 120 348
e 121 166
e 121 212
e 121 268
e 121 275
e 121 280
e 121 323
e 121 332
e 122 159
e 122 265
e 122 350
e 122 387
e 123 165
e 123 362
e 124 273
e 124 397
e 125 194
e 126 133
e 126 179
e 126 306
e 126 331
e 126 373
e 127 131
e 127 161
e 127 296
e 127 311
e 128 272
e 130 296
e 130 319
e 131 138
e 131 147
e 131 155
e 132 162
e 132 333
e 132 357
e 133 192
e 134 202
e 134 241
e 134 311
e 134 331
e 135 223
e 135 250
e 136 186
e 136 306
e 136 331
e 138 280
e 138 320
e 139 142
e 140 260
e 140 314
e 140 328
e 141 142
e 141 239
e 141 334
e 141 380
e 141 388
e 141 399
e 142 276
e 142 353
e 143 191
e 143 192
e 143 227
e 143 267
e 143 389
e 145 171
e 145 329
e 146 187
e 146 286
e 146 338
e 147 194
e 147 380
e 148 225
e 148 237
e 148 322
e 148 349
e 148 400
e 149 159
e 150 263
e 150 275
e 150 301
e 150 348
e 151 167
e 151 202
e 151 276
e 151 304
e 151 318
e 151 356
e 152 205
e 152 361
e 152 392
e 152 393
e 153 182
e 153 183
e 153 204
e 153 252
e 153 268
e 153 328
e 153 391
e 154 218
e 155 159
e 155 244
e 155 282
e 155 365
e 156 348
e 157 319
e 157 334
e 157 352
e 158 223
e 158 224
e 158 237
e 158 269
e 158 307
e 159 187
e 159 342
e 159 377
e 160 267
e 160 333
e 160 334
e 161 379
e 162 291
e 162 372
e 163 265
e 163 321
e 163 325
e 164 168
e 164 252
e 165 178
e 165 318
e 165 336
e 166 182
e 166 223
e 166 354
e 167 209
e 167 222
e 167 254
e 167 321
e 168 310
e 168 366
e 169 183
e 169 222
e 169 382
e 170 326
e 171 346
e 172 226
e 172 367
e 173 287
e 173 344
e 173 387
e 174 239
e 174 332
e 174 388
e 175 177
e 175 204
e 175 360
e 175 380
e 177 193
e 177 207
e 177 256
e 178 294
e 179 200
e 179 290
e 179 351
e 179 384
e 180 199
e 180 253
e 181 287
e 181 334
e 183 296
e 183 374
e 184 309
e 184 334
e 185 214
e 186 220
e 186 270
e 186 290
e 186 316
e 187 273
e 187 374
e 188 279
e 188 362
e 189 292
e 189 329
e 190 225
e 190 289
e 190 353
e 191 217
e 192 286
e 192 289
e 192 360
e 193 283
e 193 350
e 194 224
e 195 268
e 195 340
e 196 289
e 196 364
e 197 266
e 198 309
e 199 297
e 200 276
e 200 341
e 200 391
e 201 363
e 202 213
e 202 244
e 202 246
e 202 368
e 202 379
e 203 390
e 204 373
e 204 379
e 205 366
e 206 369
e 207 243
e 207 325
e 208 209
e 208 312
e 208 320
e 209 283
e 209 289
e 209 380
e 210 277
e 210 298
e 212 254
e 212 274
e 212 336
e 213 257
e 214 255
e 215 228
e 215 273
e 215 307
e 215 339
e 215 345
e 216 321
e 217 259
e 217 279
e 218 237
e 218 291
e 218 356
e 219 281
e 219 343
e 220 271
e 220 306
e 220 310
e 221 323
e 221 340
e 221 367
e 222 244
e 222 264
e 223 305
e 224 233
e 224 239
e 224 360
e 224 366
e 225 253
e 225 344
e 225 370
e 226 312
e 226 322
e 226 326
e 227 258
e 227 315
e 228 351
e 230 263
e 231 282
e 231 364
e 232 264
e 232 328
e 232 387
e 233 303
e 234 262
e 234 270
e 234 322
e 234 336
e 235 317
e 236 376
e 238 305
e 238 398
e 240 364
e 240 391
e 242 289
e 243 267
e 243 353
e 243 358
e 244 248
e 245 288
e 245 366
e 246 349
e 246 382
e 247 262
e 248 333
e 248 346
e 248 387
e 250 341
e 251 305
e 251 345
e 251 376
e 252 313
e 252 350
e 255 332
e 256 290
e 256 343
e 259 324
e 259 351
e 259 357
e 260 327
e 260 370
e 262 273
e 262 368
e 264 374
e 267 385
e 267 393
e 269 325
e 269 372
e 270 382
e 273 370
e 274 280
e 274 341
e 276 352
e 276 380
e 278 356
e 278 392
e 279 321
e 279 339
e 280 297
e 280 386
e 282 312
e 284 325
e 284 342
e 284 383
e 285 331
e 287 334
e 289 367
e 289 396
e 290 390
e 291 300
e 291 374
e 292 344
e 293 396
e 294 350
e 294 383
e 296 340
e 296 348
e 296 395
e 297 373
e 298 303
e 298 342
e 298 357
e 298 361
e 300 338
e 302 367
e 306 347
e 306 390
e 310 379
e 310 384
e 311 322
e 311 356
e 311 400
e 312 338
e 314 347
e 314 369
e 318 326
e 318 390
e 319 391
e 321 395
e 322 354
e 322 375
e 323 368
e 324 343
e 324 381
e 325 392
e 327 369
e 332 357
e 335 394
e 337 360
e 341 359
e 341 371
e 347 363
e 348 356
e 348 358
e 349 351
e 352 363
e 357 366
e 359 364
e 361 362
e 361 396
e 367 397
e 369 384
e 370 391
e 377 379
e 385 397
e 386 399
e 389 390
e 392 394
